NAME 
OBJSENSE MAX
ROWS
 N  OBJ
 L  packing[0]
 L  packing[1]
 L  packing[2]
 L  packing[3]
 L  packing[4]
 L  packing[5]
 L  packing[6]
 L  packing[7]
 L  packing[8]
 L  packing[9]
 L  packing[10]
 L  packing[11]
 L  packing[12]
 L  packing[13]
 L  packing[14]
 L  packing[15]
 L  packing[16]
 L  packing[17]
 L  packing[18]
 L  packing[19]
 L  packing[20]
 L  packing[21]
 L  packing[22]
 L  packing[23]
 L  packing[24]
 L  packing[25]
 L  packing[26]
 L  packing[27]
 L  packing[28]
 L  packing[29]
 L  packing[30]
 L  packing[31]
 L  packing[32]
 L  packing[33]
 L  packing[34]
 L  packing[35]
 L  packing[36]
 L  packing[37]
 L  packing[38]
 L  packing[39]
 L  packing[40]
 L  packing[41]
 L  packing[42]
 L  packing[43]
 L  packing[44]
 L  packing[45]
 L  packing[46]
 L  packing[47]
 L  packing[48]
 L  packing[49]
 L  R54     
COLUMNS
    MARKER    'MARKER'                 'INTORG'
    x[1]      OBJ       102
    x[1]      packing[0]  116
    x[1]      packing[1]  11
    x[1]      packing[3]  15
    x[1]      packing[6]  4
    x[1]      packing[7]  53
    x[1]      packing[9]  198
    x[1]      packing[10]  17
    x[1]      packing[11]  182
    x[1]      packing[12]  50
    x[1]      packing[14]  55
    x[1]      packing[16]  174
    x[1]      packing[19]  175
    x[1]      packing[20]  189
    x[1]      packing[22]  151
    x[1]      packing[23]  42
    x[1]      packing[24]  162
    x[1]      packing[25]  16
    x[1]      packing[27]  97
    x[1]      packing[28]  170
    x[1]      packing[29]  118
    x[1]      packing[30]  20
    x[1]      packing[32]  49
    x[1]      packing[33]  152
    x[1]      packing[34]  51
    x[1]      packing[35]  101
    x[1]      packing[37]  43
    x[1]      packing[38]  83
    x[1]      packing[40]  99
    x[1]      packing[41]  169
    x[1]      packing[43]  70
    x[1]      packing[45]  178
    x[1]      packing[46]  149
    x[1]      packing[47]  148
    x[1]      packing[48]  171
    x[1]      packing[49]  86
    x[1]      R54       1
    x[2]      OBJ       98
    x[2]      packing[1]  161
    x[2]      packing[2]  63
    x[2]      packing[4]  101
    x[2]      packing[5]  33
    x[2]      packing[6]  2
    x[2]      packing[7]  131
    x[2]      packing[8]  127
    x[2]      packing[9]  33
    x[2]      packing[10]  52
    x[2]      packing[11]  86
    x[2]      packing[13]  176
    x[2]      packing[14]  89
    x[2]      packing[15]  78
    x[2]      packing[17]  6
    x[2]      packing[18]  43
    x[2]      packing[20]  94
    x[2]      packing[21]  166
    x[2]      packing[23]  25
    x[2]      packing[25]  121
    x[2]      packing[26]  171
    x[2]      packing[27]  43
    x[2]      packing[28]  85
    x[2]      packing[29]  115
    x[2]      packing[30]  4
    x[2]      packing[33]  36
    x[2]      packing[34]  168
    x[2]      packing[35]  155
    x[2]      packing[36]  95
    x[2]      packing[37]  118
    x[2]      packing[38]  30
    x[2]      packing[39]  170
    x[2]      packing[40]  103
    x[2]      packing[41]  183
    x[2]      packing[44]  146
    x[2]      packing[45]  139
    x[2]      packing[47]  159
    x[3]      OBJ       82
    x[3]      packing[1]  142
    x[3]      packing[2]  180
    x[3]      packing[3]  66
    x[3]      packing[4]  63
    x[3]      packing[6]  182
    x[3]      packing[7]  179
    x[3]      packing[8]  131
    x[3]      packing[11]  113
    x[3]      packing[12]  93
    x[3]      packing[13]  102
    x[3]      packing[14]  159
    x[3]      packing[18]  92
    x[3]      packing[19]  156
    x[3]      packing[20]  3
    x[3]      packing[21]  32
    x[3]      packing[24]  184
    x[3]      packing[25]  132
    x[3]      packing[27]  104
    x[3]      packing[28]  147
    x[3]      packing[29]  95
    x[3]      packing[30]  88
    x[3]      packing[31]  143
    x[3]      packing[33]  147
    x[3]      packing[34]  194
    x[3]      packing[35]  131
    x[3]      packing[37]  101
    x[3]      packing[39]  39
    x[3]      packing[40]  143
    x[3]      packing[41]  97
    x[3]      packing[42]  63
    x[3]      packing[45]  143
    x[3]      packing[46]  91
    x[3]      packing[47]  18
    x[3]      packing[48]  158
    x[3]      packing[49]  50
    x[4]      OBJ       103
    x[4]      packing[0]  14
    x[4]      packing[1]  108
    x[4]      packing[3]  73
    x[4]      packing[5]  193
    x[4]      packing[6]  173
    x[4]      packing[8]  102
    x[4]      packing[9]  59
    x[4]      packing[11]  63
    x[4]      packing[12]  157
    x[4]      packing[13]  175
    x[4]      packing[15]  127
    x[4]      packing[16]  37
    x[4]      packing[17]  122
    x[4]      packing[18]  106
    x[4]      packing[19]  190
    x[4]      packing[21]  129
    x[4]      packing[22]  91
    x[4]      packing[24]  20
    x[4]      packing[25]  84
    x[4]      packing[26]  107
    x[4]      packing[28]  116
    x[4]      packing[29]  119
    x[4]      packing[30]  99
    x[4]      packing[31]  120
    x[4]      packing[32]  25
    x[4]      packing[33]  121
    x[4]      packing[34]  58
    x[4]      packing[35]  81
    x[4]      packing[36]  48
    x[4]      packing[37]  99
    x[4]      packing[38]  186
    x[4]      packing[39]  110
    x[4]      packing[40]  20
    x[4]      packing[42]  146
    x[4]      packing[43]  38
    x[4]      packing[44]  101
    x[4]      packing[45]  65
    x[4]      packing[47]  25
    x[4]      packing[48]  110
    x[4]      R54       1
    x[5]      OBJ       102
    x[5]      packing[1]  148
    x[5]      packing[2]  157
    x[5]      packing[4]  87
    x[5]      packing[6]  76
    x[5]      packing[7]  153
    x[5]      packing[8]  60
    x[5]      packing[9]  13
    x[5]      packing[10]  24
    x[5]      packing[11]  6
    x[5]      packing[12]  58
    x[5]      packing[14]  119
    x[5]      packing[15]  135
    x[5]      packing[16]  70
    x[5]      packing[17]  183
    x[5]      packing[18]  22
    x[5]      packing[19]  178
    x[5]      packing[20]  113
    x[5]      packing[22]  101
    x[5]      packing[24]  108
    x[5]      packing[25]  56
    x[5]      packing[26]  81
    x[5]      packing[28]  150
    x[5]      packing[30]  27
    x[5]      packing[31]  103
    x[5]      packing[32]  177
    x[5]      packing[33]  191
    x[5]      packing[34]  170
    x[5]      packing[35]  15
    x[5]      packing[36]  156
    x[5]      packing[38]  121
    x[5]      packing[39]  155
    x[5]      packing[40]  171
    x[5]      packing[41]  49
    x[5]      packing[42]  26
    x[5]      packing[43]  44
    x[5]      packing[44]  148
    x[5]      packing[45]  170
    x[5]      packing[46]  78
    x[5]      packing[47]  121
    x[5]      packing[48]  105
    x[5]      packing[49]  63
    x[5]      R54       1
    x[6]      OBJ       62
    x[6]      packing[0]  25
    x[6]      packing[1]  175
    x[6]      packing[2]  20
    x[6]      packing[3]  121
    x[6]      packing[4]  142
    x[6]      packing[6]  146
    x[6]      packing[7]  32
    x[6]      packing[9]  85
    x[6]      packing[10]  137
    x[6]      packing[11]  5
    x[6]      packing[12]  38
    x[6]      packing[13]  164
    x[6]      packing[14]  49
    x[6]      packing[15]  169
    x[6]      packing[16]  76
    x[6]      packing[17]  118
    x[6]      packing[18]  74
    x[6]      packing[19]  33
    x[6]      packing[21]  134
    x[6]      packing[22]  169
    x[6]      packing[23]  169
    x[6]      packing[24]  121
    x[6]      packing[25]  135
    x[6]      packing[27]  95
    x[6]      packing[28]  123
    x[6]      packing[30]  82
    x[6]      packing[32]  162
    x[6]      packing[35]  109
    x[6]      packing[36]  8
    x[6]      packing[37]  70
    x[6]      packing[38]  186
    x[6]      packing[39]  109
    x[6]      packing[40]  141
    x[6]      packing[41]  12
    x[6]      packing[42]  55
    x[6]      packing[43]  29
    x[6]      packing[46]  153
    x[6]      packing[47]  108
    x[6]      packing[48]  78
    x[6]      packing[49]  30
    x[7]      OBJ       92
    x[7]      packing[0]  25
    x[7]      packing[1]  92
    x[7]      packing[2]  167
    x[7]      packing[4]  148
    x[7]      packing[5]  136
    x[7]      packing[7]  21
    x[7]      packing[8]  189
    x[7]      packing[9]  137
    x[7]      packing[12]  58
    x[7]      packing[13]  31
    x[7]      packing[14]  106
    x[7]      packing[16]  86
    x[7]      packing[18]  70
    x[7]      packing[19]  169
    x[7]      packing[20]  111
    x[7]      packing[21]  118
    x[7]      packing[22]  68
    x[7]      packing[24]  1
    x[7]      packing[25]  91
    x[7]      packing[26]  53
    x[7]      packing[27]  145
    x[7]      packing[28]  2
    x[7]      packing[29]  68
    x[7]      packing[32]  138
    x[7]      packing[33]  173
    x[7]      packing[34]  135
    x[7]      packing[37]  103
    x[7]      packing[38]  103
    x[7]      packing[39]  7
    x[7]      packing[40]  148
    x[7]      packing[42]  114
    x[7]      packing[43]  84
    x[7]      packing[44]  83
    x[7]      packing[45]  106
    x[7]      packing[46]  175
    x[7]      packing[47]  73
    x[7]      packing[48]  174
    x[7]      packing[49]  135
    x[8]      OBJ       27
    x[8]      packing[0]  60
    x[8]      packing[2]  105
    x[8]      packing[3]  22
    x[8]      packing[4]  142
    x[8]      packing[5]  65
    x[8]      packing[6]  99
    x[8]      packing[8]  38
    x[8]      packing[9]  102
    x[8]      packing[10]  86
    x[8]      packing[12]  145
    x[8]      packing[13]  152
    x[8]      packing[14]  139
    x[8]      packing[15]  104
    x[8]      packing[16]  161
    x[8]      packing[17]  21
    x[8]      packing[19]  20
    x[8]      packing[20]  150
    x[8]      packing[22]  110
    x[8]      packing[23]  31
    x[8]      packing[24]  131
    x[8]      packing[26]  135
    x[8]      packing[28]  140
    x[8]      packing[29]  92
    x[8]      packing[30]  131
    x[8]      packing[31]  22
    x[8]      packing[33]  112
    x[8]      packing[34]  89
    x[8]      packing[37]  148
    x[8]      packing[39]  194
    x[8]      packing[40]  126
    x[8]      packing[41]  63
    x[8]      packing[42]  58
    x[8]      packing[43]  191
    x[8]      packing[44]  14
    x[8]      packing[45]  139
    x[8]      packing[46]  59
    x[8]      packing[47]  134
    x[8]      packing[48]  92
    x[9]      OBJ       137
    x[9]      packing[0]  171
    x[9]      packing[1]  95
    x[9]      packing[2]  189
    x[9]      packing[3]  43
    x[9]      packing[4]  132
    x[9]      packing[5]  172
    x[9]      packing[6]  17
    x[9]      packing[7]  88
    x[9]      packing[8]  54
    x[9]      packing[9]  78
    x[9]      packing[10]  130
    x[9]      packing[11]  9
    x[9]      packing[12]  125
    x[9]      packing[13]  112
    x[9]      packing[14]  93
    x[9]      packing[16]  25
    x[9]      packing[17]  141
    x[9]      packing[19]  49
    x[9]      packing[21]  170
    x[9]      packing[22]  39
    x[9]      packing[23]  41
    x[9]      packing[24]  189
    x[9]      packing[25]  83
    x[9]      packing[26]  195
    x[9]      packing[27]  66
    x[9]      packing[29]  153
    x[9]      packing[30]  106
    x[9]      packing[33]  92
    x[9]      packing[35]  117
    x[9]      packing[36]  92
    x[9]      packing[37]  92
    x[9]      packing[38]  121
    x[9]      packing[39]  7
    x[9]      packing[40]  73
    x[9]      packing[41]  15
    x[9]      packing[42]  133
    x[9]      packing[44]  75
    x[9]      packing[45]  42
    x[9]      packing[46]  133
    x[9]      packing[47]  140
    x[9]      packing[48]  198
    x[10]     OBJ       33
    x[10]     packing[0]  67
    x[10]     packing[1]  136
    x[10]     packing[2]  127
    x[10]     packing[3]  52
    x[10]     packing[5]  104
    x[10]     packing[6]  99
    x[10]     packing[7]  17
    x[10]     packing[8]  146
    x[10]     packing[9]  128
    x[10]     packing[10]  198
    x[10]     packing[11]  156
    x[10]     packing[12]  48
    x[10]     packing[13]  161
    x[10]     packing[14]  18
    x[10]     packing[15]  172
    x[10]     packing[16]  156
    x[10]     packing[17]  73
    x[10]     packing[18]  149
    x[10]     packing[19]  3
    x[10]     packing[20]  197
    x[10]     packing[21]  84
    x[10]     packing[22]  123
    x[10]     packing[23]  75
    x[10]     packing[24]  94
    x[10]     packing[25]  189
    x[10]     packing[27]  37
    x[10]     packing[29]  198
    x[10]     packing[30]  102
    x[10]     packing[31]  134
    x[10]     packing[32]  172
    x[10]     packing[33]  109
    x[10]     packing[36]  11
    x[10]     packing[37]  140
    x[10]     packing[38]  165
    x[10]     packing[39]  191
    x[10]     packing[40]  52
    x[10]     packing[41]  75
    x[10]     packing[42]  64
    x[10]     packing[44]  20
    x[10]     packing[45]  167
    x[10]     packing[47]  95
    x[10]     packing[48]  187
    x[11]     OBJ       67
    x[11]     packing[0]  6
    x[11]     packing[2]  116
    x[11]     packing[3]  105
    x[11]     packing[4]  16
    x[11]     packing[5]  83
    x[11]     packing[6]  66
    x[11]     packing[7]  186
    x[11]     packing[8]  173
    x[11]     packing[9]  28
    x[11]     packing[10]  120
    x[11]     packing[11]  134
    x[11]     packing[12]  174
    x[11]     packing[17]  165
    x[11]     packing[19]  116
    x[11]     packing[21]  123
    x[11]     packing[22]  64
    x[11]     packing[23]  166
    x[11]     packing[24]  162
    x[11]     packing[26]  60
    x[11]     packing[27]  18
    x[11]     packing[28]  21
    x[11]     packing[29]  77
    x[11]     packing[30]  141
    x[11]     packing[31]  37
    x[11]     packing[32]  154
    x[11]     packing[33]  108
    x[11]     packing[35]  100
    x[11]     packing[36]  95
    x[11]     packing[37]  69
    x[11]     packing[39]  151
    x[11]     packing[40]  61
    x[11]     packing[42]  196
    x[11]     packing[43]  163
    x[11]     packing[44]  198
    x[11]     packing[45]  115
    x[11]     packing[46]  176
    x[11]     packing[47]  102
    x[12]     OBJ       46
    x[12]     packing[0]  116
    x[12]     packing[1]  146
    x[12]     packing[2]  188
    x[12]     packing[3]  86
    x[12]     packing[4]  160
    x[12]     packing[5]  184
    x[12]     packing[6]  58
    x[12]     packing[7]  34
    x[12]     packing[8]  9
    x[12]     packing[10]  14
    x[12]     packing[11]  192
    x[12]     packing[12]  88
    x[12]     packing[14]  39
    x[12]     packing[15]  54
    x[12]     packing[16]  114
    x[12]     packing[20]  164
    x[12]     packing[21]  68
    x[12]     packing[23]  27
    x[12]     packing[24]  169
    x[12]     packing[28]  147
    x[12]     packing[29]  7
    x[12]     packing[30]  195
    x[12]     packing[31]  25
    x[12]     packing[32]  10
    x[12]     packing[33]  86
    x[12]     packing[34]  4
    x[12]     packing[35]  60
    x[12]     packing[36]  135
    x[12]     packing[37]  149
    x[12]     packing[38]  80
    x[12]     packing[39]  163
    x[12]     packing[40]  74
    x[12]     packing[41]  38
    x[12]     packing[42]  84
    x[12]     packing[44]  68
    x[12]     packing[45]  3
    x[12]     packing[47]  45
    x[12]     packing[48]  100
    x[12]     packing[49]  138
    x[13]     OBJ       119
    x[13]     packing[1]  165
    x[13]     packing[2]  32
    x[13]     packing[3]  12
    x[13]     packing[5]  159
    x[13]     packing[6]  139
    x[13]     packing[7]  193
    x[13]     packing[8]  180
    x[13]     packing[9]  18
    x[13]     packing[10]  114
    x[13]     packing[12]  35
    x[13]     packing[14]  174
    x[13]     packing[15]  62
    x[13]     packing[16]  142
    x[13]     packing[18]  79
    x[13]     packing[20]  65
    x[13]     packing[21]  84
    x[13]     packing[22]  126
    x[13]     packing[23]  151
    x[13]     packing[24]  147
    x[13]     packing[25]  155
    x[13]     packing[26]  9
    x[13]     packing[27]  3
    x[13]     packing[28]  159
    x[13]     packing[29]  136
    x[13]     packing[30]  150
    x[13]     packing[31]  167
    x[13]     packing[32]  121
    x[13]     packing[33]  6
    x[13]     packing[34]  168
    x[13]     packing[37]  119
    x[13]     packing[40]  185
    x[13]     packing[41]  124
    x[13]     packing[42]  111
    x[13]     packing[43]  186
    x[13]     packing[44]  30
    x[13]     packing[45]  14
    x[13]     packing[46]  91
    x[13]     packing[48]  126
    x[13]     packing[49]  108
    x[14]     OBJ       116
    x[14]     packing[0]  54
    x[14]     packing[1]  81
    x[14]     packing[2]  169
    x[14]     packing[3]  81
    x[14]     packing[4]  163
    x[14]     packing[5]  92
    x[14]     packing[8]  160
    x[14]     packing[11]  114
    x[14]     packing[13]  25
    x[14]     packing[14]  152
    x[14]     packing[16]  25
    x[14]     packing[18]  42
    x[14]     packing[19]  49
    x[14]     packing[22]  43
    x[14]     packing[23]  48
    x[14]     packing[25]  172
    x[14]     packing[26]  186
    x[14]     packing[28]  46
    x[14]     packing[29]  82
    x[14]     packing[31]  98
    x[14]     packing[32]  115
    x[14]     packing[34]  166
    x[14]     packing[35]  105
    x[14]     packing[36]  176
    x[14]     packing[37]  118
    x[14]     packing[38]  152
    x[14]     packing[39]  94
    x[14]     packing[40]  20
    x[14]     packing[41]  162
    x[14]     packing[42]  17
    x[14]     packing[43]  51
    x[14]     packing[45]  139
    x[14]     packing[46]  108
    x[14]     packing[48]  77
    x[14]     packing[49]  172
    x[15]     OBJ       36
    x[15]     packing[0]  186
    x[15]     packing[1]  164
    x[15]     packing[2]  82
    x[15]     packing[3]  146
    x[15]     packing[7]  73
    x[15]     packing[8]  196
    x[15]     packing[9]  165
    x[15]     packing[10]  63
    x[15]     packing[11]  16
    x[15]     packing[13]  16
    x[15]     packing[15]  11
    x[15]     packing[16]  46
    x[15]     packing[17]  41
    x[15]     packing[18]  199
    x[15]     packing[19]  3
    x[15]     packing[20]  34
    x[15]     packing[23]  62
    x[15]     packing[24]  82
    x[15]     packing[25]  99
    x[15]     packing[26]  112
    x[15]     packing[27]  191
    x[15]     packing[28]  192
    x[15]     packing[29]  192
    x[15]     packing[31]  127
    x[15]     packing[32]  165
    x[15]     packing[34]  7
    x[15]     packing[35]  76
    x[15]     packing[36]  108
    x[15]     packing[39]  17
    x[15]     packing[40]  36
    x[15]     packing[41]  64
    x[15]     packing[42]  145
    x[15]     packing[43]  168
    x[15]     packing[44]  95
    x[15]     packing[45]  104
    x[15]     packing[46]  44
    x[15]     packing[47]  111
    x[15]     packing[48]  72
    x[15]     packing[49]  161
    x[16]     OBJ       39
    x[16]     packing[0]  36
    x[16]     packing[2]  7
    x[16]     packing[4]  55
    x[16]     packing[5]  46
    x[16]     packing[6]  26
    x[16]     packing[9]  163
    x[16]     packing[10]  13
    x[16]     packing[11]  130
    x[16]     packing[12]  137
    x[16]     packing[14]  16
    x[16]     packing[15]  38
    x[16]     packing[16]  158
    x[16]     packing[18]  43
    x[16]     packing[19]  152
    x[16]     packing[20]  171
    x[16]     packing[21]  81
    x[16]     packing[22]  5
    x[16]     packing[23]  39
    x[16]     packing[25]  181
    x[16]     packing[26]  28
    x[16]     packing[28]  80
    x[16]     packing[29]  59
    x[16]     packing[30]  173
    x[16]     packing[32]  194
    x[16]     packing[33]  124
    x[16]     packing[35]  10
    x[16]     packing[37]  149
    x[16]     packing[38]  123
    x[16]     packing[39]  115
    x[16]     packing[40]  59
    x[16]     packing[41]  74
    x[16]     packing[42]  198
    x[16]     packing[44]  138
    x[16]     packing[45]  27
    x[16]     packing[46]  53
    x[16]     packing[47]  178
    x[16]     packing[48]  170
    x[16]     packing[49]  108
    x[16]     R54       1
    x[17]     OBJ       75
    x[17]     packing[0]  49
    x[17]     packing[2]  155
    x[17]     packing[3]  26
    x[17]     packing[4]  101
    x[17]     packing[5]  27
    x[17]     packing[8]  166
    x[17]     packing[10]  61
    x[17]     packing[13]  91
    x[17]     packing[14]  73
    x[17]     packing[15]  155
    x[17]     packing[16]  24
    x[17]     packing[17]  41
    x[17]     packing[18]  57
    x[17]     packing[20]  69
    x[17]     packing[21]  141
    x[17]     packing[22]  84
    x[17]     packing[23]  178
    x[17]     packing[24]  148
    x[17]     packing[25]  180
    x[17]     packing[26]  108
    x[17]     packing[28]  20
    x[17]     packing[29]  18
    x[17]     packing[31]  39
    x[17]     packing[32]  118
    x[17]     packing[34]  122
    x[17]     packing[35]  90
    x[17]     packing[36]  120
    x[17]     packing[38]  12
    x[17]     packing[39]  19
    x[17]     packing[40]  143
    x[17]     packing[42]  48
    x[17]     packing[43]  107
    x[17]     packing[44]  163
    x[17]     packing[47]  174
    x[17]     packing[48]  48
    x[17]     packing[49]  194
    x[18]     OBJ       124
    x[18]     packing[2]  44
    x[18]     packing[3]  135
    x[18]     packing[4]  133
    x[18]     packing[5]  162
    x[18]     packing[6]  97
    x[18]     packing[7]  88
    x[18]     packing[9]  160
    x[18]     packing[10]  194
    x[18]     packing[12]  64
    x[18]     packing[14]  14
    x[18]     packing[16]  58
    x[18]     packing[17]  137
    x[18]     packing[18]  18
    x[18]     packing[19]  80
    x[18]     packing[21]  190
    x[18]     packing[23]  141
    x[18]     packing[25]  88
    x[18]     packing[26]  29
    x[18]     packing[28]  48
    x[18]     packing[29]  99
    x[18]     packing[30]  188
    x[18]     packing[31]  199
    x[18]     packing[32]  7
    x[18]     packing[33]  162
    x[18]     packing[35]  58
    x[18]     packing[37]  33
    x[18]     packing[39]  29
    x[18]     packing[41]  183
    x[18]     packing[42]  150
    x[18]     packing[44]  113
    x[18]     packing[45]  185
    x[18]     packing[46]  149
    x[18]     packing[47]  43
    x[18]     packing[48]  190
    x[18]     R54       1
    x[19]     OBJ       58
    x[19]     packing[0]  5
    x[19]     packing[1]  51
    x[19]     packing[3]  24
    x[19]     packing[4]  21
    x[19]     packing[5]  117
    x[19]     packing[6]  144
    x[19]     packing[11]  48
    x[19]     packing[12]  93
    x[19]     packing[13]  67
    x[19]     packing[15]  192
    x[19]     packing[16]  84
    x[19]     packing[17]  134
    x[19]     packing[18]  49
    x[19]     packing[19]  151
    x[19]     packing[20]  183
    x[19]     packing[22]  160
    x[19]     packing[23]  20
    x[19]     packing[24]  169
    x[19]     packing[25]  98
    x[19]     packing[26]  132
    x[19]     packing[27]  87
    x[19]     packing[28]  159
    x[19]     packing[30]  129
    x[19]     packing[31]  183
    x[19]     packing[32]  81
    x[19]     packing[33]  121
    x[19]     packing[34]  173
    x[19]     packing[36]  101
    x[19]     packing[38]  71
    x[19]     packing[40]  146
    x[19]     packing[41]  37
    x[19]     packing[42]  145
    x[19]     packing[43]  67
    x[19]     packing[46]  10
    x[19]     packing[47]  110
    x[20]     OBJ       197
    x[20]     packing[1]  50
    x[20]     packing[2]  138
    x[20]     packing[5]  65
    x[20]     packing[7]  174
    x[20]     packing[8]  166
    x[20]     packing[9]  54
    x[20]     packing[10]  32
    x[20]     packing[11]  143
    x[20]     packing[13]  44
    x[20]     packing[14]  109
    x[20]     packing[15]  53
    x[20]     packing[16]  65
    x[20]     packing[17]  31
    x[20]     packing[18]  120
    x[20]     packing[20]  117
    x[20]     packing[22]  73
    x[20]     packing[23]  42
    x[20]     packing[24]  119
    x[20]     packing[25]  178
    x[20]     packing[26]  49
    x[20]     packing[27]  11
    x[20]     packing[29]  71
    x[20]     packing[30]  114
    x[20]     packing[32]  19
    x[20]     packing[33]  120
    x[20]     packing[34]  135
    x[20]     packing[35]  135
    x[20]     packing[36]  159
    x[20]     packing[37]  13
    x[20]     packing[38]  114
    x[20]     packing[39]  164
    x[20]     packing[40]  91
    x[20]     packing[42]  55
    x[20]     packing[45]  176
    x[20]     packing[46]  170
    x[20]     packing[47]  152
    x[20]     packing[48]  59
    x[20]     packing[49]  151
    MARKER    'MARKER'                 'INTEND'
RHS
    RHS1      packing[0]  465
    RHS1      packing[1]  863
    RHS1      packing[2]  970
    RHS1      packing[3]  504
    RHS1      packing[4]  732
    RHS1      packing[5]  819
    RHS1      packing[6]  664
    RHS1      packing[7]  711
    RHS1      packing[8]  949
    RHS1      packing[9]  711
    RHS1      packing[10]  628
    RHS1      packing[11]  699
    RHS1      packing[12]  682
    RHS1      packing[13]  658
    RHS1      packing[14]  702
    RHS1      packing[15]  675
    RHS1      packing[16]  751
    RHS1      packing[17]  607
    RHS1      packing[18]  582
    RHS1      packing[19]  762
    RHS1      packing[20]  830
    RHS1      packing[21]  760
    RHS1      packing[22]  704
    RHS1      packing[23]  629
    RHS1      packing[24]  1003
    RHS1      packing[25]  1029
    RHS1      packing[26]  728
    RHS1      packing[27]  449
    RHS1      packing[28]  903
    RHS1      packing[29]  850
    RHS1      packing[30]  875
    RHS1      packing[31]  699
    RHS1      packing[32]  854
    RHS1      packing[33]  930
    RHS1      packing[34]  820
    RHS1      packing[35]  672
    RHS1      packing[36]  652
    RHS1      packing[37]  782
    RHS1      packing[38]  774
    RHS1      packing[39]  867
    RHS1      packing[40]  946
    RHS1      packing[41]  673
    RHS1      packing[42]  904
    RHS1      packing[43]  599
    RHS1      packing[44]  696
    RHS1      packing[45]  956
    RHS1      packing[46]  820
    RHS1      packing[47]  968
    RHS1      packing[48]  1058
    RHS1      packing[49]  698
    RHS1      R54       4
BOUNDS
 BV BND1      x[1]    
 BV BND1      x[2]    
 BV BND1      x[3]    
 BV BND1      x[4]    
 BV BND1      x[5]    
 BV BND1      x[6]    
 BV BND1      x[7]    
 BV BND1      x[8]    
 BV BND1      x[9]    
 BV BND1      x[10]   
 BV BND1      x[11]   
 BV BND1      x[12]   
 BV BND1      x[13]   
 BV BND1      x[14]   
 BV BND1      x[15]   
 BV BND1      x[16]   
 BV BND1      x[17]   
 BV BND1      x[18]   
 BV BND1      x[19]   
 BV BND1      x[20]   
ENDATA
